p cnf 224 406
-1 2 0
-3 4 0
-5 6 0
-7 8 0
-9 10 0
-11 12 0
-13 14 0
-15 16 0
-17 18 0
-19 20 0
-21 22 0
-23 24 0
-25 26 0
-27 28 0
-29 -1 1 0
-29 -1 1 0
-30 -1 3 0
-30 -3 1 0
-31 -1 5 0
-31 -5 1 0
-32 -1 7 0
-32 -7 1 0
-33 -1 9 0
-33 -9 1 0
-34 -1 11 0
-34 -11 1 0
-35 -1 13 0
-35 -13 1 0
-36 -1 15 0
-36 -15 1 0
-37 -1 17 0
-37 -17 1 0
-38 -1 19 0
-38 -19 1 0
-39 -1 21 0
-39 -21 1 0
-40 -1 23 0
-40 -23 1 0
-41 -1 25 0
-41 -25 1 0
-42 -1 27 0
-42 -27 1 0
-43 -3 1 0
-43 -1 3 0
-44 -3 3 0
-44 -3 3 0
-45 -3 5 0
-45 -5 3 0
-46 -3 7 0
-46 -7 3 0
-47 -3 9 0
-47 -9 3 0
-48 -3 11 0
-48 -11 3 0
-49 -3 13 0
-49 -13 3 0
-50 -3 15 0
-50 -15 3 0
-51 -3 17 0
-51 -17 3 0
-52 -3 19 0
-52 -19 3 0
-53 -3 21 0
-53 -21 3 0
-54 -3 23 0
-54 -23 3 0
-55 -3 25 0
-55 -25 3 0
-56 -3 27 0
-56 -27 3 0
-57 -5 1 0
-57 -1 5 0
-58 -5 3 0
-58 -3 5 0
-59 -5 5 0
-59 -5 5 0
-60 -5 7 0
-60 -7 5 0
-61 -5 9 0
-61 -9 5 0
-62 -5 11 0
-62 -11 5 0
-63 -5 13 0
-63 -13 5 0
-64 -5 15 0
-64 -15 5 0
-65 -5 17 0
-65 -17 5 0
-66 -5 19 0
-66 -19 5 0
-67 -5 21 0
-67 -21 5 0
-68 -5 23 0
-68 -23 5 0
-69 -5 25 0
-69 -25 5 0
-70 -5 27 0
-70 -27 5 0
-71 -7 1 0
-71 -1 7 0
-72 -7 3 0
-72 -3 7 0
-73 -7 5 0
-73 -5 7 0
-74 -7 7 0
-74 -7 7 0
-75 -7 9 0
-75 -9 7 0
-76 -7 11 0
-76 -11 7 0
-77 -7 13 0
-77 -13 7 0
-78 -7 15 0
-78 -15 7 0
-79 -7 17 0
-79 -17 7 0
-80 -7 19 0
-80 -19 7 0
-81 -7 21 0
-81 -21 7 0
-82 -7 23 0
-82 -23 7 0
-83 -7 25 0
-83 -25 7 0
-84 -7 27 0
-84 -27 7 0
-85 -9 1 0
-85 -1 9 0
-86 -9 3 0
-86 -3 9 0
-87 -9 5 0
-87 -5 9 0
-88 -9 7 0
-88 -7 9 0
-89 -9 9 0
-89 -9 9 0
-90 -9 11 0
-90 -11 9 0
-91 -9 13 0
-91 -13 9 0
-92 -9 15 0
-92 -15 9 0
-93 -9 17 0
-93 -17 9 0
-94 -9 19 0
-94 -19 9 0
-95 -9 21 0
-95 -21 9 0
-96 -9 23 0
-96 -23 9 0
-97 -9 25 0
-97 -25 9 0
-98 -9 27 0
-98 -27 9 0
-99 -11 1 0
-99 -1 11 0
-100 -11 3 0
-100 -3 11 0
-101 -11 5 0
-101 -5 11 0
-102 -11 7 0
-102 -7 11 0
-103 -11 9 0
-103 -9 11 0
-104 -11 11 0
-104 -11 11 0
-105 -11 13 0
-105 -13 11 0
-106 -11 15 0
-106 -15 11 0
-107 -11 17 0
-107 -17 11 0
-108 -11 19 0
-108 -19 11 0
-109 -11 21 0
-109 -21 11 0
-110 -11 23 0
-110 -23 11 0
-111 -11 25 0
-111 -25 11 0
-112 -11 27 0
-112 -27 11 0
-113 -13 1 0
-113 -1 13 0
-114 -13 3 0
-114 -3 13 0
-115 -13 5 0
-115 -5 13 0
-116 -13 7 0
-116 -7 13 0
-117 -13 9 0
-117 -9 13 0
-118 -13 11 0
-118 -11 13 0
-119 -13 13 0
-119 -13 13 0
-120 -13 15 0
-120 -15 13 0
-121 -13 17 0
-121 -17 13 0
-122 -13 19 0
-122 -19 13 0
-123 -13 21 0
-123 -21 13 0
-124 -13 23 0
-124 -23 13 0
-125 -13 25 0
-125 -25 13 0
-126 -13 27 0
-126 -27 13 0
-127 -15 1 0
-127 -1 15 0
-128 -15 3 0
-128 -3 15 0
-129 -15 5 0
-129 -5 15 0
-130 -15 7 0
-130 -7 15 0
-131 -15 9 0
-131 -9 15 0
-132 -15 11 0
-132 -11 15 0
-133 -15 13 0
-133 -13 15 0
-134 -15 15 0
-134 -15 15 0
-135 -15 17 0
-135 -17 15 0
-136 -15 19 0
-136 -19 15 0
-137 -15 21 0
-137 -21 15 0
-138 -15 23 0
-138 -23 15 0
-139 -15 25 0
-139 -25 15 0
-140 -15 27 0
-140 -27 15 0
-141 -17 1 0
-141 -1 17 0
-142 -17 3 0
-142 -3 17 0
-143 -17 5 0
-143 -5 17 0
-144 -17 7 0
-144 -7 17 0
-145 -17 9 0
-145 -9 17 0
-146 -17 11 0
-146 -11 17 0
-147 -17 13 0
-147 -13 17 0
-148 -17 15 0
-148 -15 17 0
-149 -17 17 0
-149 -17 17 0
-150 -17 19 0
-150 -19 17 0
-151 -17 21 0
-151 -21 17 0
-152 -17 23 0
-152 -23 17 0
-153 -17 25 0
-153 -25 17 0
-154 -17 27 0
-154 -27 17 0
-155 -19 1 0
-155 -1 19 0
-156 -19 3 0
-156 -3 19 0
-157 -19 5 0
-157 -5 19 0
-158 -19 7 0
-158 -7 19 0
-159 -19 9 0
-159 -9 19 0
-160 -19 11 0
-160 -11 19 0
-161 -19 13 0
-161 -13 19 0
-162 -19 15 0
-162 -15 19 0
-163 -19 17 0
-163 -17 19 0
-164 -19 19 0
-164 -19 19 0
-165 -19 21 0
-165 -21 19 0
-166 -19 23 0
-166 -23 19 0
-167 -19 25 0
-167 -25 19 0
-168 -19 27 0
-168 -27 19 0
-169 -21 1 0
-169 -1 21 0
-170 -21 3 0
-170 -3 21 0
-171 -21 5 0
-171 -5 21 0
-172 -21 7 0
-172 -7 21 0
-173 -21 9 0
-173 -9 21 0
-174 -21 11 0
-174 -11 21 0
-175 -21 13 0
-175 -13 21 0
-176 -21 15 0
-176 -15 21 0
-177 -21 17 0
-177 -17 21 0
-178 -21 19 0
-178 -19 21 0
-179 -21 21 0
-179 -21 21 0
-180 -21 23 0
-180 -23 21 0
-181 -21 25 0
-181 -25 21 0
-182 -21 27 0
-182 -27 21 0
-183 -23 1 0
-183 -1 23 0
-184 -23 3 0
-184 -3 23 0
-185 -23 5 0
-185 -5 23 0
-186 -23 7 0
-186 -7 23 0
-187 -23 9 0
-187 -9 23 0
-188 -23 11 0
-188 -11 23 0
-189 -23 13 0
-189 -13 23 0
-190 -23 15 0
-190 -15 23 0
-191 -23 17 0
-191 -17 23 0
-192 -23 19 0
-192 -19 23 0
-193 -23 21 0
-193 -21 23 0
-194 -23 23 0
-194 -23 23 0
-195 -23 25 0
-195 -25 23 0
-196 -23 27 0
-196 -27 23 0
-197 -25 1 0
-197 -1 25 0
-198 -25 3 0
-198 -3 25 0
-199 -25 5 0
-199 -5 25 0
-200 -25 7 0
-200 -7 25 0
-201 -25 9 0
-201 -9 25 0
-202 -25 11 0
-202 -11 25 0
-203 -25 13 0
-203 -13 25 0
-204 -25 15 0
-204 -15 25 0
-205 -25 17 0
-205 -17 25 0
-206 -25 19 0
-206 -19 25 0
-207 -25 21 0
-207 -21 25 0
-208 -25 23 0
-208 -23 25 0
-209 -25 25 0
-209 -25 25 0
-210 -25 27 0
-210 -27 25 0
-211 -27 1 0
-211 -1 27 0
-212 -27 3 0
-212 -3 27 0
-213 -27 5 0
-213 -5 27 0
-214 -27 7 0
-214 -7 27 0
-215 -27 9 0
-215 -9 27 0
-216 -27 11 0
-216 -11 27 0
-217 -27 13 0
-217 -13 27 0
-218 -27 15 0
-218 -15 27 0
-219 -27 17 0
-219 -17 27 0
-220 -27 19 0
-220 -19 27 0
-221 -27 21 0
-221 -21 27 0
-222 -27 23 0
-222 -23 27 0
-223 -27 25 0
-223 -25 27 0
-224 -27 27 0
-224 -27 27 0

